c Sudoku solution
p cnf 729 0
128 0
232 0
246 0
255 0
264 0
281 0
314 0
335 0
468 0
484 0
491 0
538 0
582 0
611 0
627 0
678 0
298 0
686 0
769 0
825 0
843 0
854 0
888 0
899 0
912 0
718 0
422 0
961 0
976 0
994 0
174 0
553 0
541 0
644 0
524 0
734 0
131 0
351 0
348 0
721 0
871 0
756 0
862 0
326 0
196 0
185 0
142 0
159 0
958 0
449 0
652 0
665 0
579 0
639 0
693 0
219 0
117 0
223 0
163 0
367 0
277 0
413 0
436 0
515 0
475 0
597 0
457 0
566 0
816 0
837 0
929 0
933 0
389 0
783 0
772 0
373 0
392 0
987 0
795 0
747 0
945 0
